param n := 50;
param c := 150;
param w := 
1 144
2 142
3 141
4 139
5 135
6 133
7 131
8 128
9 125
10 120
11 117
12 115
13 114
14 108
15 106
16 105
17 94
18 94
19 93
20 92
21 90
22 89
23 86
24 81
25 77
26 75
27 61
28 60
29 55
30 55
31 53
32 47
33 45
34 40
35 39
36 36
37 35
38 35
39 29
40 28
41 26
42 24
43 23
44 23
45 20
46 16
47 14
48 12
49 8
50 1
;